Optimizer called with the following parameters:
{'focal_plane_mask': {'field_stop_radius': None,
                      'grayscale': True,
                      'num_pix': 150,
                      'radius': 4.0},
 'image': {'bandwidth': 0.2,
           'contrast': 10,
           'iwa': 3.9,
           'num_wavelengths': 5,
           'owa': 14.0,
           'resolution': 2},
 'instrument': {'inst_name': 'USORT'},
 'lyot_stop': {'alignment_tolerance': 0,
               'filename': 'USORT/LS_USORT_circ_ID0000_OD0990_ovsamp16_N0128.fits',
               'num_lyot_stops': 1},
 'method': {'edge_width_for_prior': 2,
            'ending_scale': 1,
            'force_no_hermitian_symmetry': False,
            'force_no_x_mirror_symmetry': False,
            'force_no_y_mirror_symmetry': False,
            'initial_throughput_estimate': 1,
            'maximize_planet_throughput': True,
            'num_throughput_iterations': 2,
            'starting_scale': 1},
 'pupil': {'N': 128,
           'filename': 'USORT/TelAp_USORT_offaxis_ovsamp16_N0128.fits'},
 'solver': {'crossover': 0,
            'method': 2,
            'num_threads': 0}}

File organization:
{'analysis_dir': '/user/bnickson/GitHub/LUVex_TelAps/aplc_optimization/surveys/usort_offaxis_survey_N0128_telserv3/FPM40_IWA39/analysis',
 'drivers_dir': '/user/bnickson/GitHub/LUVex_TelAps/aplc_optimization/surveys/usort_offaxis_survey_N0128_telserv3/FPM40_IWA39/drivers',
 'input_files_dir': '/user/bnickson/GitHub/LUVex_TelAps/aplc_optimization/masks',
 'log_dir': '/user/bnickson/GitHub/LUVex_TelAps/aplc_optimization/surveys/usort_offaxis_survey_N0128_telserv3/FPM40_IWA39/logs',
 'solution_dir': '/user/bnickson/GitHub/LUVex_TelAps/aplc_optimization/surveys/usort_offaxis_survey_N0128_telserv3/FPM40_IWA39/solutions',
 'survey_dir': '/user/bnickson/GitHub/LUVex_TelAps/aplc_optimization/surveys/usort_offaxis_survey_N0128_telserv3/FPM40_IWA39'}

Telescope pupil:
   Mirror symmetry in x: yes
   Mirror symmetry in y: yes

Lyot stop #0:
   Mirror symmetry in x: yes
Lyot stop #0:
   Mirror symmetry in y: yes

Complete APLC:
   Mirror symmetry in x: yes
   Mirror symmetry in y: yes

Starting optimization at scale 1 with 2726 variables and 2850 constraints.
Creating model...
Set parameter Username
Academic license - for non-commercial use only - expires 2024-10-25
Set parameter Crossover to value 0
Set parameter Method to value 2
Calculating and adding constraints...
Wavelength 1/5; Variable 1000/2726
Wavelength 1/5; Variable 2000/2726
Wavelength 2/5; Variable 1000/2726
Wavelength 2/5; Variable 2000/2726
Wavelength 3/5; Variable 1000/2726
Wavelength 3/5; Variable 2000/2726
Wavelength 4/5; Variable 1000/2726
Wavelength 4/5; Variable 2000/2726
Wavelength 5/5; Variable 1000/2726
Wavelength 5/5; Variable 2000/2726
Start optimization...
Gurobi Optimizer version 10.0.3 build v10.0.3rc0 (linux64)

CPU model: Intel(R) Xeon(R) Gold 6146 CPU @ 3.20GHz, instruction set [SSE2|AVX|AVX2|AVX512]
Thread count: 24 physical cores, 48 logical processors, using up to 24 threads

Optimize a model with 5700 rows, 2726 columns and 15538200 nonzeros
Model fingerprint: 0x7eafb02d
Coefficient statistics:
  Matrix range     [1e-13, 5e-04]
  Objective range  [2e-03, 1e+00]
  Bounds range     [1e+00, 1e+00]
  RHS range        [1e-05, 1e-05]
Presolve removed 0 rows and 0 columns (presolve time = 7s) ...
Presolve time: 7.63s
Presolved: 2726 rows, 8426 columns, 15540926 nonzeros
Error: invalid user locale; possible fix is to set the system environment
       variable 'LC_ALL' to a valid locale (e.g., to 'C')
Ordering time: 0.08s

Barrier statistics:
 AA' NZ     : 3.714e+06
 Factor NZ  : 3.717e+06 (roughly 34 MB of memory)
 Factor Ops : 6.756e+09 (less than 1 second per iteration)
 Threads    : 24

                  Objective                Residual
Iter       Primal          Dual         Primal    Dual     Compl     Time
   0   5.59482300e+03  0.00000000e+00  0.00e+00 0.00e+00  9.75e-01    11s
   1   2.80299700e+03  8.28805113e+02  0.00e+00 9.54e-02  2.65e-01    11s
   2   2.08148517e+03  1.23008807e+03  0.00e+00 4.93e-02  1.13e-01    12s
   3   1.79740265e+03  1.29974425e+03  0.00e+00 3.92e-02  7.01e-02    12s
   4   1.70357724e+03  1.33098652e+03  0.00e+00 3.38e-02  5.59e-02    13s
   5   1.65129106e+03  1.35521139e+03  0.00e+00 2.87e-02  4.59e-02    14s
   6   1.61187808e+03  1.36390784e+03  0.00e+00 2.66e-02  4.07e-02    15s
   7   1.57931287e+03  1.37261857e+03  0.00e+00 2.42e-02  3.58e-02    16s
   8   1.54826155e+03  1.37633418e+03  0.00e+00 2.27e-02  3.25e-02    16s
   9   1.52494850e+03  1.37727016e+03  0.00e+00 2.04e-02  2.94e-02    17s
  10   1.50223645e+03  1.37831604e+03  0.00e+00 1.89e-02  2.67e-02    18s
  11   1.49451509e+03  1.37702587e+03  0.00e+00 1.66e-02  2.46e-02    18s
  12   1.44136659e+03  1.37459375e+03  0.00e+00 1.44e-02  1.99e-02    19s
  13   1.38358318e+03  1.36983765e+03  0.00e+00 1.20e-02  1.43e-02    19s
  14   1.36011656e+03  1.36162643e+03  0.00e+00 9.68e-03  1.10e-02    20s
  15   1.34532026e+03  1.35359467e+03  0.00e+00 8.17e-03  9.15e-03    20s
  16   1.32459662e+03  1.34556956e+03  0.00e+00 6.94e-03  7.15e-03    21s
  17   1.31919688e+03  1.34313616e+03  0.00e+00 6.63e-03  6.68e-03    22s
  18   1.30934910e+03  1.33859027e+03  0.00e+00 5.96e-03  5.62e-03    23s
  19   1.30658483e+03  1.33326974e+03  0.00e+00 5.33e-03  5.08e-03    24s
  20   1.30393888e+03  1.32716435e+03  0.00e+00 4.64e-03  4.51e-03    25s
  21   1.30003875e+03  1.32636283e+03  0.00e+00 4.55e-03  4.25e-03    25s
  22   1.29724770e+03  1.32295865e+03  0.00e+00 4.19e-03  3.90e-03    26s
  23   1.29557085e+03  1.31804870e+03  0.00e+00 3.66e-03  3.50e-03    26s
  24   1.28823143e+03  1.30967470e+03  0.00e+00 2.85e-03  2.54e-03    27s
  25   1.28710192e+03  1.30703867e+03  0.00e+00 2.59e-03  2.30e-03    27s
  26   1.28636917e+03  1.30425311e+03  0.00e+00 2.32e-03  2.08e-03    28s
  27   1.28334170e+03  1.30260711e+03  0.00e+00 2.16e-03  1.79e-03    28s
  28   1.28153495e+03  1.29854028e+03  0.00e+00 1.79e-03  1.46e-03    29s
  29   1.28011390e+03  1.29655572e+03  0.00e+00 1.63e-03  1.27e-03    30s
  30   1.27937424e+03  1.29291636e+03  0.00e+00 1.34e-03  1.07e-03    30s
  31   1.27890799e+03  1.29114822e+03  0.00e+00 1.20e-03  9.68e-04    31s
  32   1.27812488e+03  1.28978669e+03  0.00e+00 1.09e-03  8.47e-04    32s
  33   1.27766152e+03  1.28868131e+03  0.00e+00 1.00e-03  7.59e-04    33s
  34   1.27677850e+03  1.28719350e+03  0.00e+00 8.88e-04  6.39e-04    33s
  35   1.27655238e+03  1.28587019e+03  0.00e+00 7.89e-04  5.71e-04    34s
  36   1.27641642e+03  1.28333932e+03  0.00e+00 6.01e-04  4.53e-04    34s
  37   1.27621493e+03  1.28281974e+03  0.00e+00 5.63e-04  4.16e-04    35s
  38   1.27590501e+03  1.28185791e+03  0.00e+00 4.92e-04  3.53e-04    35s
  39   1.27571987e+03  1.28128416e+03  0.00e+00 4.50e-04  3.14e-04    36s
  40   1.27546751e+03  1.28024571e+03  0.00e+00 3.67e-04  2.41e-04    37s
  41   1.27536886e+03  1.28000245e+03  0.00e+00 3.49e-04  2.26e-04    37s
  42   1.27526414e+03  1.27954519e+03  0.00e+00 3.17e-04  2.03e-04    38s
  43   1.27517586e+03  1.27927722e+03  0.00e+00 2.98e-04  1.91e-04    39s
  44   1.27509437e+03  1.27889927e+03  0.00e+00 2.72e-04  1.74e-04    41s
  45   1.27503204e+03  1.27844747e+03  0.00e+00 2.41e-04  1.52e-04    44s
  46   1.27500982e+03  1.27832253e+03  0.00e+00 2.33e-04  1.47e-04    46s
  47   1.27496046e+03  1.27808122e+03  0.00e+00 2.17e-04  1.36e-04    49s
  48   1.27492541e+03  1.27794324e+03  0.00e+00 2.09e-04  1.30e-04    51s
  49   1.27489688e+03  1.27772848e+03  0.00e+00 1.95e-04  1.22e-04    53s
  50   1.27482287e+03  1.27736660e+03  0.00e+00 1.72e-04  1.05e-04    55s
  51   1.27480655e+03  1.27699395e+03  0.00e+00 1.48e-04  9.13e-05    58s
  52   1.27478610e+03  1.27659999e+03  0.00e+00 1.22e-04  7.57e-05    60s
  53   1.27476068e+03  1.27635257e+03  0.00e+00 1.06e-04  6.46e-05    64s
  54   1.27474386e+03  1.27616471e+03  0.00e+00 9.42e-05  5.68e-05    67s
  55   1.27472365e+03  1.27590148e+03  0.00e+00 7.76e-05  4.65e-05    69s
  56   1.27471480e+03  1.27577680e+03  1.46e-08 6.97e-05  4.17e-05    71s
  57   1.27470292e+03  1.27563169e+03  5.90e-07 6.07e-05  3.62e-05    74s
  58   1.27468784e+03  1.27539206e+03  1.56e-06 4.53e-05  2.63e-05    77s
  59   1.27467996e+03  1.27512140e+03  2.55e-06 2.84e-05  1.66e-05    81s
  60   1.27467700e+03  1.27503340e+03  2.31e-06 2.29e-05  1.33e-05    84s
  61   1.27467320e+03  1.27498354e+03  2.53e-06 1.98e-05  1.14e-05    87s
  62   1.27467159e+03  1.27493528e+03  2.40e-06 1.68e-05  9.65e-06    90s
  63   1.27467025e+03  1.27487858e+03  4.85e-06 1.33e-05  7.60e-06    92s
  64   1.27466862e+03  1.27476864e+03  4.29e-06 6.49e-06  3.88e-06    95s
  65   1.27466650e+03  1.27471201e+03  2.54e-06 2.98e-06  1.82e-06    98s
  66   1.27466558e+03  1.27468120e+03  1.17e-06 1.07e-06  7.10e-07   102s
  67   1.27466558e+03  1.27467962e+03  2.29e-06 9.66e-07  6.55e-07   106s
  68   1.27466518e+03  1.27467324e+03  3.34e-06 5.69e-07  4.03e-07   115s
  69   1.27466506e+03  1.27467075e+03  4.54e-06 4.14e-07  3.07e-07   119s
  70   1.27466479e+03  1.27466623e+03  5.59e-06 1.32e-07  1.37e-07   123s
  71   1.27466482e+03  1.27466585e+03  9.37e-06 1.08e-07  1.20e-07   127s
  72   1.27466472e+03  1.27466556e+03  1.74e-05 8.91e-08  1.05e-07   131s
  73   1.27466465e+03  1.27466521e+03  1.80e-05 6.67e-08  8.91e-08   135s
  74   1.27466461e+03  1.27466490e+03  1.84e-05 4.73e-08  7.22e-08   139s
  75   1.27466444e+03  1.27466457e+03  2.78e-05 2.65e-08  4.97e-08   143s
  76   1.27466441e+03  1.27466447e+03  2.23e-05 2.00e-08  3.93e-08   146s
  77   1.27466447e+03  1.27466443e+03  3.31e-05 1.70e-08  3.49e-08   148s
  78   1.27466457e+03  1.27466437e+03  3.56e-05 1.35e-08  3.15e-08   153s
  79   1.27466423e+03  1.27466427e+03  2.96e-05 7.07e-09  2.21e-08   156s
  80   1.27466423e+03  1.27466421e+03  2.09e-05 2.99e-09  4.86e-09   161s
  81   1.27466429e+03  1.27466416e+03  1.73e-05 2.74e-10  2.03e-09   170s
  82   1.27466431e+03  1.27466416e+03  1.89e-05 2.00e-10  1.75e-09   174s
  83   1.27466430e+03  1.27466416e+03  1.84e-05 1.95e-10  1.74e-09   177s
  84   1.27466429e+03  1.27466416e+03  1.61e-05 3.64e-14  1.57e-09   180s
  85   1.27466416e+03  1.27466416e+03  1.88e-05 3.67e-13  1.07e-09   185s
  86   1.27466415e+03  1.27466416e+03  2.85e-05 2.18e-13  3.40e-10   191s
  87   1.27466416e+03  1.27466416e+03  2.62e-05 3.07e-13  3.00e-10   196s
  88   1.27466435e+03  1.27466416e+03  3.87e-05 3.85e-13  1.90e-10   197s
  89   1.27466435e+03  1.27466416e+03  3.91e-05 3.50e-13  1.10e-10   198s
  90   1.27466412e+03  1.27466416e+03  3.61e-05 4.98e-13  2.83e-12   200s
  91   1.27466415e+03  1.27466416e+03  3.16e-05 5.57e-13  4.67e-13   201s

Barrier performed 91 iterations in 201.41 seconds (46.39 work units)
Sub-optimal termination - objective 1.27466518e+03

Optimization finished!
Restarting optimization for throughput iteration 1...
Gurobi Optimizer version 10.0.3 build v10.0.3rc0 (linux64)

CPU model: Intel(R) Xeon(R) Gold 6146 CPU @ 3.20GHz, instruction set [SSE2|AVX|AVX2|AVX512]
Thread count: 24 physical cores, 48 logical processors, using up to 24 threads

Optimize a model with 5700 rows, 2726 columns and 15538200 nonzeros
Model fingerprint: 0x2deeca6a
Coefficient statistics:
  Matrix range     [1e-13, 5e-04]
  Objective range  [2e-03, 1e+00]
  Bounds range     [1e+00, 1e+00]
  RHS range        [6e-06, 6e-06]
Presolve removed 0 rows and 0 columns (presolve time = 7s) ...
Presolve time: 8.12s
Presolved: 2726 rows, 8426 columns, 15540926 nonzeros
Ordering time: 0.09s

Barrier statistics:
 AA' NZ     : 3.714e+06
 Factor NZ  : 3.717e+06 (roughly 34 MB of memory)
 Factor Ops : 6.756e+09 (less than 1 second per iteration)
 Threads    : 24

                  Objective                Residual
Iter       Primal          Dual         Primal    Dual     Compl     Time
   0   5.53004249e+03  0.00000000e+00  0.00e+00 0.00e+00  9.67e-01    12s
   1   2.73980399e+03  8.33200382e+02  0.00e+00 9.21e-02  2.57e-01    12s
   2   1.94009867e+03  1.16557018e+03  0.00e+00 5.47e-02  1.13e-01    13s
   3   1.74765713e+03  1.27961692e+03  0.00e+00 4.15e-02  7.42e-02    14s
   4   1.67662962e+03  1.31247832e+03  0.00e+00 3.58e-02  6.24e-02    15s
   5   1.62290532e+03  1.31846980e+03  0.00e+00 3.38e-02  5.72e-02    15s
   6   1.55007972e+03  1.33309380e+03  0.00e+00 2.99e-02  4.85e-02    16s
   7   1.52129596e+03  1.34104900e+03  0.00e+00 2.60e-02  4.25e-02    17s
   8   1.47143750e+03  1.33953862e+03  0.00e+00 2.40e-02  3.85e-02    18s
   9   1.42537831e+03  1.33309023e+03  0.00e+00 2.15e-02  3.38e-02    18s
  10   1.41199067e+03  1.32934447e+03  0.00e+00 2.03e-02  3.20e-02    19s
  11   1.40232698e+03  1.32723544e+03  0.00e+00 1.91e-02  3.04e-02    20s
  12   1.31710282e+03  1.31802423e+03  0.00e+00 1.69e-02  2.39e-02    21s
  13   1.26717961e+03  1.30472013e+03  0.00e+00 1.46e-02  1.94e-02    22s
  14   1.24344535e+03  1.28951023e+03  0.00e+00 1.28e-02  1.68e-02    23s
  15   1.22998854e+03  1.28671940e+03  0.00e+00 1.24e-02  1.58e-02    24s
  16   1.20718527e+03  1.27586457e+03  0.00e+00 1.10e-02  1.33e-02    24s
  17   1.19429534e+03  1.26938373e+03  0.00e+00 1.05e-02  1.24e-02    25s
  18   1.18052186e+03  1.26014426e+03  0.00e+00 9.54e-03  1.09e-02    25s
  19   1.17269327e+03  1.25734850e+03  0.00e+00 9.29e-03  1.06e-02    26s
  20   1.16297599e+03  1.23913930e+03  0.00e+00 7.83e-03  8.77e-03    27s
  21   1.15391411e+03  1.22521235e+03  0.00e+00 6.69e-03  7.36e-03    27s
  22   1.15221954e+03  1.22262483e+03  0.00e+00 6.52e-03  7.15e-03    28s
  23   1.14855361e+03  1.21714242e+03  0.00e+00 6.13e-03  6.69e-03    29s
  24   1.13906104e+03  1.20798111e+03  0.00e+00 5.49e-03  5.64e-03    29s
  25   1.13515980e+03  1.19851621e+03  0.00e+00 4.94e-03  5.14e-03    30s
  26   1.13170184e+03  1.19331647e+03  0.00e+00 4.62e-03  4.76e-03    30s
  27   1.12643825e+03  1.18110628e+03  0.00e+00 3.90e-03  3.94e-03    31s
  28   1.12389566e+03  1.17873682e+03  0.00e+00 3.76e-03  3.69e-03    32s
  29   1.12040596e+03  1.17399097e+03  0.00e+00 3.48e-03  3.32e-03    33s
  30   1.11864259e+03  1.16907922e+03  0.00e+00 3.20e-03  3.03e-03    34s
  31   1.11770134e+03  1.16157655e+03  0.00e+00 2.80e-03  2.72e-03    37s
  32   1.11595359e+03  1.15895945e+03  0.00e+00 2.66e-03  2.53e-03    39s
  33   1.11434355e+03  1.15083597e+03  0.00e+00 2.21e-03  2.10e-03    43s
  34   1.11236340e+03  1.14543298e+03  0.00e+00 1.92e-03  1.81e-03    47s
  35   1.11055138e+03  1.14005255e+03  0.00e+00 1.66e-03  1.57e-03    50s
  36   1.10901595e+03  1.13711510e+03  0.00e+00 1.52e-03  1.41e-03    53s
  37   1.10773086e+03  1.13192225e+03  0.00e+00 1.29e-03  1.23e-03    56s
  38   1.10635358e+03  1.12959429e+03  0.00e+00 1.19e-03  1.10e-03    59s
  39   1.10535385e+03  1.12569872e+03  0.00e+00 1.02e-03  9.52e-04    62s
  40   1.10393133e+03  1.12153994e+03  0.00e+00 8.47e-04  7.71e-04    65s
  41   1.10263023e+03  1.11594761e+03  0.00e+00 6.08e-04  5.23e-04    69s
  42   1.10187909e+03  1.11303922e+03  0.00e+00 4.92e-04  4.09e-04    72s
  43   1.10172627e+03  1.11213805e+03  0.00e+00 4.57e-04  3.81e-04    75s
  44   1.10145648e+03  1.11106240e+03  0.00e+00 4.15e-04  3.39e-04    78s
  45   1.10120431e+03  1.10889755e+03  0.00e+00 3.30e-04  2.70e-04    80s
  46   1.10103844e+03  1.10677937e+03  0.00e+00 2.45e-04  2.00e-04    84s
  47   1.10085984e+03  1.10533725e+03  0.00e+00 1.87e-04  1.45e-04    88s
  48   1.10076300e+03  1.10518713e+03  1.98e-06 1.81e-04  1.34e-04    92s
  49   1.10070693e+03  1.10377465e+03  3.82e-06 1.26e-04  9.38e-05    95s
  50   1.10068600e+03  1.10329194e+03  5.66e-06 1.07e-04  8.06e-05    97s
  51   1.10064311e+03  1.10272085e+03  9.96e-06 8.47e-05  6.23e-05   100s
  52   1.10062278e+03  1.10214091e+03  8.17e-06 6.23e-05  4.69e-05   102s
  53   1.10058980e+03  1.10172609e+03  4.20e-06 4.62e-05  3.41e-05   105s
  54   1.10057349e+03  1.10124191e+03  8.87e-06 2.73e-05  2.06e-05   109s
  55   1.10055100e+03  1.10092528e+03  5.30e-06 1.51e-05  1.10e-05   114s
  56   1.10054805e+03  1.10073946e+03  1.16e-05 8.09e-06  6.68e-06   118s
  57   1.10054737e+03  1.10069746e+03  1.98e-05 6.50e-06  5.69e-06   121s
  58   1.10054385e+03  1.10065861e+03  3.49e-05 5.03e-06  4.51e-06   126s
  59   1.10054399e+03  1.10065778e+03  4.05e-05 5.00e-06  4.49e-06   129s
  60   1.10054377e+03  1.10064914e+03  2.61e-05 4.67e-06  4.28e-06   134s
  61   1.10054299e+03  1.10064295e+03  4.51e-05 4.43e-06  3.26e-06   140s
  62   1.10054233e+03  1.10062186e+03  7.69e-05 3.63e-06  2.87e-06   144s
  63   1.10054171e+03  1.10061575e+03  9.72e-05 3.40e-06  2.74e-06   148s
  64   1.10054047e+03  1.10061535e+03  1.13e-04 3.38e-06  2.71e-06   151s
  65   1.10054027e+03  1.10060926e+03  1.02e-04 3.15e-06  2.57e-06   155s
  66   1.10053936e+03  1.10060275e+03  1.06e-04 2.90e-06  2.36e-06   157s
  67   1.10053718e+03  1.10059547e+03  1.33e-04 2.63e-06  2.01e-06   158s
  68   1.10053727e+03  1.10059545e+03  1.33e-04 2.63e-06  2.00e-06   159s
  69   1.10053728e+03  1.10059544e+03  1.32e-04 2.63e-06  2.01e-06   161s
  70   1.10053645e+03  1.10059450e+03  1.72e-04 2.59e-06  1.97e-06   163s
  71   1.10053408e+03  1.10058863e+03  1.65e-04 2.37e-06  1.70e-06   165s
  72   1.10053409e+03  1.10058863e+03  1.66e-04 2.37e-06  1.70e-06   166s
  73   1.10053135e+03  1.10057599e+03  2.23e-04 1.89e-06  1.40e-06   167s
  74   1.10053165e+03  1.10057216e+03  2.61e-04 1.75e-06  1.29e-06   169s
  75   1.10052990e+03  1.10056610e+03  2.87e-04 1.52e-06  1.14e-06   170s
  76   1.10052951e+03  1.10055704e+03  2.03e-04 1.17e-06  8.86e-07   172s
  77   1.10052913e+03  1.10055525e+03  2.72e-04 1.10e-06  8.04e-07   173s
  78   1.10052985e+03  1.10055410e+03  2.62e-04 1.06e-06  7.73e-07   174s
  79   1.10053000e+03  1.10055376e+03  2.56e-04 1.05e-06  7.65e-07   175s
  80   1.10052968e+03  1.10055280e+03  2.58e-04 1.01e-06  7.30e-07   176s
  81   1.10052949e+03  1.10055278e+03  2.45e-04 1.01e-06  7.30e-07   177s
  82   1.10052889e+03  1.10055050e+03  3.75e-04 9.23e-07  6.71e-07   178s
  83   1.10052878e+03  1.10055009e+03  3.65e-04 9.08e-07  6.62e-07   179s
  84   1.10052871e+03  1.10054947e+03  3.54e-04 8.84e-07  6.47e-07   180s
  85   1.10052895e+03  1.10054869e+03  3.38e-04 8.55e-07  6.26e-07   181s
  86   1.10052883e+03  1.10054727e+03  3.43e-04 8.01e-07  5.93e-07   182s
  87   1.10052886e+03  1.10054691e+03  3.35e-04 7.87e-07  5.78e-07   183s
  88   1.10052888e+03  1.10054685e+03  3.57e-04 7.85e-07  5.74e-07   184s
  89   1.10052896e+03  1.10054656e+03  3.45e-04 7.74e-07  5.64e-07   186s
  90   1.10052881e+03  1.10054624e+03  3.53e-04 7.62e-07  5.49e-07   187s
  91   1.10052872e+03  1.10054539e+03  3.37e-04 7.29e-07  5.30e-07   188s
  92   1.10052855e+03  1.10054483e+03  3.23e-04 7.08e-07  5.16e-07   189s
  93   1.10052865e+03  1.10054395e+03  3.05e-04 6.75e-07  4.92e-07   190s
  94   1.10052898e+03  1.10054326e+03  3.00e-04 6.48e-07  4.73e-07   191s
  95   1.10052855e+03  1.10054261e+03  2.99e-04 6.24e-07  4.54e-07   192s
  96   1.10052793e+03  1.10054148e+03  2.75e-04 5.81e-07  4.29e-07   193s
  97   1.10052796e+03  1.10054139e+03  2.73e-04 5.77e-07  4.25e-07   194s
  98   1.10052771e+03  1.10053983e+03  2.75e-04 5.18e-07  3.98e-07   195s
  99   1.10052749e+03  1.10053948e+03  2.43e-04 5.05e-07  3.79e-07   196s
 100   1.10052705e+03  1.10053945e+03  2.43e-04 5.04e-07  3.78e-07   197s
 101   1.10052726e+03  1.10053848e+03  2.29e-04 4.67e-07  3.51e-07   198s
 102   1.10052684e+03  1.10053693e+03  1.96e-04 4.08e-07  3.17e-07   199s
 103   1.10052708e+03  1.10053509e+03  1.85e-04 3.38e-07  2.83e-07   200s
 104   1.10052665e+03  1.10053328e+03  1.81e-04 2.70e-07  2.42e-07   201s
 105   1.10052662e+03  1.10053308e+03  1.82e-04 2.62e-07  2.32e-07   202s
 106   1.10052649e+03  1.10053285e+03  1.74e-04 2.54e-07  2.20e-07   204s
 107   1.10052557e+03  1.10053075e+03  2.06e-04 1.74e-07  1.63e-07   205s
 108   1.10052564e+03  1.10053056e+03  2.02e-04 1.67e-07  1.59e-07   208s
 109   1.10052546e+03  1.10053056e+03  2.07e-04 1.67e-07  1.59e-07   210s
 110   1.10052550e+03  1.10052982e+03  2.09e-04 1.39e-07  1.45e-07   212s
 111   1.10052548e+03  1.10052980e+03  2.08e-04 1.38e-07  1.44e-07   214s
 112   1.10052551e+03  1.10052972e+03  2.43e-04 1.35e-07  1.40e-07   218s
 113   1.10052555e+03  1.10052964e+03  2.39e-04 1.32e-07  1.36e-07   221s
 114   1.10052579e+03  1.10052952e+03  2.48e-04 1.27e-07  1.31e-07   224s
 115   1.10052454e+03  1.10052950e+03  2.63e-04 1.27e-07  1.29e-07   226s
 116   1.10052465e+03  1.10052938e+03  2.45e-04 1.22e-07  1.25e-07   229s
 117   1.10052460e+03  1.10052850e+03  2.21e-04 8.88e-08  1.02e-07   233s
 118   1.10052474e+03  1.10052842e+03  2.19e-04 8.59e-08  9.96e-08   236s
 119   1.10052470e+03  1.10052841e+03  2.11e-04 8.56e-08  9.92e-08   239s
 120   1.10052486e+03  1.10052838e+03  1.89e-04 8.44e-08  9.75e-08   242s
 121   1.10052487e+03  1.10052825e+03  2.03e-04 7.95e-08  9.40e-08   245s
 122   1.10052499e+03  1.10052817e+03  1.90e-04 7.65e-08  9.08e-08   247s
 123   1.10052516e+03  1.10052813e+03  1.73e-04 7.50e-08  8.78e-08   249s
 124   1.10052512e+03  1.10052811e+03  1.72e-04 7.40e-08  8.65e-08   252s
 125   1.10052591e+03  1.10052768e+03  2.00e-04 5.75e-08  7.44e-08   255s
 126   1.10052590e+03  1.10052768e+03  1.99e-04 5.75e-08  7.44e-08   258s
 127   1.10052562e+03  1.10052768e+03  2.21e-04 5.74e-08  7.43e-08   260s
 128   1.10052428e+03  1.10052765e+03  2.43e-04 5.66e-08  7.22e-08   265s
 129   1.10052395e+03  1.10052756e+03  2.12e-04 5.31e-08  5.87e-08   268s
 130   1.10052411e+03  1.10052754e+03  1.93e-04 5.24e-08  5.82e-08   273s
 131   1.10052356e+03  1.10052710e+03  1.58e-04 3.54e-08  4.39e-08   275s
 132   1.10052519e+03  1.10052682e+03  1.94e-04 2.50e-08  3.07e-08   282s
 133   1.10052627e+03  1.10052674e+03  1.54e-04 2.22e-08  1.86e-08   287s
 134   1.10052622e+03  1.10052674e+03  1.57e-04 2.21e-08  1.86e-08   290s
 135   1.10052520e+03  1.10052642e+03  1.97e-04 9.89e-09  1.07e-08   294s
 136   1.10052526e+03  1.10052637e+03  1.83e-04 8.08e-09  9.10e-09   297s
 137   1.10052516e+03  1.10052637e+03  1.87e-04 7.80e-09  8.80e-09   298s
 138   1.10052516e+03  1.10052637e+03  1.88e-04 7.79e-09  8.80e-09   300s
 139   1.10052518e+03  1.10052637e+03  1.87e-04 7.74e-09  8.76e-09   302s
 140   1.10052538e+03  1.10052634e+03  1.63e-04 7.01e-09  7.90e-09   307s
 141   1.10052529e+03  1.10052634e+03  1.62e-04 6.94e-09  7.86e-09   310s
 142   1.10052640e+03  1.10052633e+03  2.04e-04 6.23e-09  7.74e-09   315s
 143   1.10052472e+03  1.10052631e+03  2.98e-04 5.13e-09  6.39e-09   323s
 144   1.10052473e+03  1.10052631e+03  2.98e-04 5.13e-09  6.39e-09   325s
 145   1.10052473e+03  1.10052631e+03  2.96e-04 5.12e-09  6.39e-09   329s
 146   1.10052468e+03  1.10052631e+03  2.95e-04 5.09e-09  6.36e-09   333s
 147   1.10052492e+03  1.10052630e+03  3.07e-04 4.91e-09  6.14e-09   337s
 148   1.10052567e+03  1.10052629e+03  3.44e-04 4.33e-09  5.37e-09   342s
 149   1.10052494e+03  1.10052628e+03  2.73e-04 4.06e-09  4.38e-09   348s
 150   1.10052471e+03  1.10052626e+03  2.57e-04 3.06e-09  3.81e-09   351s
 151   1.10052465e+03  1.10052626e+03  2.51e-04 3.05e-09  3.77e-09   357s
 152   1.10052481e+03  1.10052623e+03  3.24e-04 2.22e-09  2.74e-09   362s
 153   1.10052483e+03  1.10052621e+03  3.11e-04 1.69e-09  2.51e-09   365s
 154   1.10052478e+03  1.10052621e+03  2.84e-04 1.60e-09  2.32e-09   366s
 155   1.10052469e+03  1.10052621e+03  2.83e-04 1.53e-09  2.26e-09   368s
 156   1.10052499e+03  1.10052621e+03  2.75e-04 1.45e-09  2.15e-09   370s
 157   1.10052527e+03  1.10052621e+03  2.62e-04 1.38e-09  1.96e-09   371s
 158   1.10052547e+03  1.10052621e+03  2.55e-04 1.28e-09  1.87e-09   372s
 159   1.10052517e+03  1.10052620e+03  2.97e-04 1.22e-09  1.83e-09   374s
 160   1.10052517e+03  1.10052620e+03  2.64e-04 1.22e-09  1.80e-09   375s
 161   1.10052523e+03  1.10052620e+03  2.68e-04 1.20e-09  1.78e-09   376s
 162   1.10052521e+03  1.10052620e+03  2.67e-04 1.17e-09  1.77e-09   378s
 163   1.10052451e+03  1.10052620e+03  2.22e-04 1.10e-09  1.64e-09   380s
 164   1.10052457e+03  1.10052620e+03  2.19e-04 1.07e-09  1.61e-09   381s
 165   1.10052471e+03  1.10052620e+03  2.25e-04 1.07e-09  1.60e-09   382s
 166   1.10052468e+03  1.10052620e+03  4.36e-04 9.44e-10  1.69e-09   382s
 167   1.10052447e+03  1.10052620e+03  3.65e-04 9.21e-10  1.58e-09   383s
 168   1.10052451e+03  1.10052620e+03  3.41e-04 8.94e-10  1.51e-09   384s
 169   1.10052468e+03  1.10052619e+03  3.24e-04 6.87e-10  1.39e-09   385s
 170   1.10052464e+03  1.10052619e+03  3.18e-04 6.87e-10  1.39e-09   386s
 171   1.10052591e+03  1.10052619e+03  3.56e-04 6.23e-10  1.34e-09   386s
 172   1.10052770e+03  1.10052619e+03  2.52e-04 6.13e-10  9.94e-10   390s
 173   1.10052771e+03  1.10052619e+03  2.50e-04 5.93e-10  9.49e-10   392s
 174   1.10052758e+03  1.10052619e+03  2.71e-04 5.64e-10  9.11e-10   395s
 175   1.10052770e+03  1.10052619e+03  2.85e-04 5.35e-10  8.79e-10   398s
 176   1.10052687e+03  1.10052619e+03  2.22e-04 5.21e-10  7.48e-10   402s
 177   1.10052686e+03  1.10052619e+03  2.16e-04 5.21e-10  7.48e-10   405s
 178   1.10052670e+03  1.10052619e+03  2.12e-04 4.85e-10  7.11e-10   408s
 179   1.10052665e+03  1.10052619e+03  2.10e-04 4.74e-10  6.98e-10   413s
 180   1.10052665e+03  1.10052619e+03  2.09e-04 4.71e-10  6.95e-10   418s
 181   1.10052644e+03  1.10052619e+03  2.21e-04 4.67e-10  6.84e-10   422s
 182   1.10052639e+03  1.10052619e+03  2.02e-04 4.65e-10  6.70e-10   425s
 183   1.10052633e+03  1.10052619e+03  1.77e-04 4.63e-10  6.21e-10   428s
 184   1.10052625e+03  1.10052619e+03  2.03e-04 4.44e-10  5.95e-10   431s
 185   1.10052635e+03  1.10052619e+03  1.95e-04 4.44e-10  5.94e-10   434s
 186   1.10052671e+03  1.10052618e+03  1.69e-04 5.47e-11  5.20e-10   437s
 187   1.10052670e+03  1.10052618e+03  1.69e-04 5.43e-11  5.20e-10   440s
 188   1.10052628e+03  1.10052618e+03  2.29e-04 5.33e-11  5.33e-10   443s
 189   1.10052584e+03  1.10052618e+03  2.02e-04 4.35e-11  4.80e-10   446s
 190   1.10052602e+03  1.10052618e+03  2.54e-04 4.34e-11  4.45e-10   450s
 191   1.10052606e+03  1.10052618e+03  2.53e-04 3.84e-11  4.32e-10   454s
 192   1.10052642e+03  1.10052618e+03  2.56e-04 3.83e-11  4.34e-10   457s
 193   1.10052599e+03  1.10052617e+03  2.45e-04 3.19e-11  4.57e-10   462s
 194   1.10052599e+03  1.10052617e+03  2.46e-04 3.19e-11  4.57e-10   467s
 195   1.10052599e+03  1.10052617e+03  2.30e-04 3.19e-11  4.68e-10   470s
 196   1.10052674e+03  1.10052617e+03  2.05e-04 3.19e-11  4.27e-10   475s
 197   1.10052674e+03  1.10052617e+03  2.05e-04 3.13e-11  4.34e-10   478s
 198   1.10052604e+03  1.10052617e+03  2.93e-04 2.21e-11  3.35e-10   495s
 199   1.10052577e+03  1.10052617e+03  2.75e-04 1.68e-11  2.79e-10   500s
 200   1.10052523e+03  1.10052617e+03  2.88e-04 1.20e-11  1.75e-10   506s
 201   1.10052498e+03  1.10052617e+03  2.77e-04 5.06e-12  1.56e-10   527s
 202   1.10052493e+03  1.10052617e+03  2.69e-04 4.95e-12  1.48e-10   532s
 203   1.10052403e+03  1.10052617e+03  3.15e-04 5.18e-12  1.61e-10   534s
 204   1.10052395e+03  1.10052617e+03  3.88e-04 5.35e-12  1.14e-10   535s
 205   1.10052505e+03  1.10052615e+03  3.35e-04 3.41e-12  1.57e-10   537s
 206   1.10052485e+03  1.10052615e+03  3.30e-04 3.51e-12  1.51e-10   539s
 207   1.10052475e+03  1.10052615e+03  3.27e-04 3.48e-12  1.50e-10   540s
 208   1.10052476e+03  1.10052615e+03  3.27e-04 4.16e-12  1.50e-10   541s
 209   1.10052474e+03  1.10052615e+03  3.18e-04 2.91e-12  1.40e-10   542s
 210   1.10052576e+03  1.10052615e+03  2.48e-04 2.01e-12  1.26e-10   544s
 211   1.10052584e+03  1.10052615e+03  2.52e-04 1.98e-12  1.24e-10   546s
 212   1.10052594e+03  1.10052615e+03  2.43e-04 1.91e-12  1.21e-10   547s
 213   1.10052594e+03  1.10052615e+03  2.44e-04 2.40e-12  1.21e-10   548s
 214   1.10052583e+03  1.10052615e+03  2.34e-04 2.41e-12  1.16e-10   549s

Barrier performed 214 iterations in 549.31 seconds (142.22 work units)
Sub-optimal termination - objective 1.10054377e+03

/user/bnickson/GitHub/LUVex_TelAps/aplc_optimization/surveys/usort_offaxis_survey_N0128_telserv3/FPM40_IWA39/drivers/02_USORT_N128_FPM400M0150_IWA0390_OWA01400_C10_BW20_Nlam5_LS_IDc_ID0_OD_OD0_ls_90_ovsamp16_.py:102: DeprecationWarning: circular_aperture is deprecated. Its new name is make_circular_aperture.
  dark_zone_mask = circular_aperture(img_owa * 2)(focal_grid) - circular_aperture(img_iwa * 2)(focal_grid)
/user/bnickson/GitHub/LUVex_TelAps/aplc_optimization/surveys/usort_offaxis_survey_N0128_telserv3/FPM40_IWA39/drivers/02_USORT_N128_FPM400M0150_IWA0390_OWA01400_C10_BW20_Nlam5_LS_IDc_ID0_OD_OD0_ls_90_ovsamp16_.py:110: DeprecationWarning: circular_aperture is deprecated. Its new name is make_circular_aperture.
  focal_plane_mask = 1 - evaluate_supersampled(circular_aperture(2 * fpm_radius), focal_mask_grid, 8)
WARNING: VerifyWarning: Keyword name 'LS_ALIGN_TOl' is greater than 8 characters or contains characters not allowed by the FITS standard; a HIERARCH card will be created. [astropy.io.fits.card]
WARNING: VerifyWarning: Keyword name 'LS_NUM_STOPS' is greater than 8 characters or contains characters not allowed by the FITS standard; a HIERARCH card will be created. [astropy.io.fits.card]
WARNING: VerifyWarning: Keyword name 'PROG_START' is greater than 8 characters or contains characters not allowed by the FITS standard; a HIERARCH card will be created. [astropy.io.fits.card]
WARNING: VerifyWarning: Keyword name 'PROG_EDGE' is greater than 8 characters or contains characters not allowed by the FITS standard; a HIERARCH card will be created. [astropy.io.fits.card]
WARNING: VerifyWarning: Keyword name 'THRPT_ITER' is greater than 8 characters or contains characters not allowed by the FITS standard; a HIERARCH card will be created. [astropy.io.fits.card]
WARNING: VerifyWarning: Keyword name 'THRPT_ESTIM' is greater than 8 characters or contains characters not allowed by the FITS standard; a HIERARCH card will be created. [astropy.io.fits.card]
WARNING: VerifyWarning: Keyword name 'MAX_THRPT' is greater than 8 characters or contains characters not allowed by the FITS standard; a HIERARCH card will be created. [astropy.io.fits.card]
WARNING: VerifyWarning: Keyword name 'SLV_THRDS' is greater than 8 characters or contains characters not allowed by the FITS standard; a HIERARCH card will be created. [astropy.io.fits.card]
WARNING: VerifyWarning: Keyword name 'SLV_XOVER' is greater than 8 characters or contains characters not allowed by the FITS standard; a HIERARCH card will be created. [astropy.io.fits.card]
Optimization finished!
